
Gurobi 9.1.2 (linux64) logging started Wed Jun 30 11:16:33 2021


Gurobi 9.1.2 (linux64) logging started Wed Jun 30 11:16:36 2021

Gurobi Optimizer version 9.1.2 build v9.1.2rc0 (linux64)
Thread count: 24 physical cores, 24 logical processors, using up to 24 threads
Optimize a model with 64962 rows, 25295 columns and 186737 nonzeros
Model fingerprint: 0x5d88293e
Coefficient statistics:
  Matrix range     [3e-04, 1e+01]
  Objective range  [2e+01, 4e+05]
  Bounds range     [1e+03, 8e+06]
  RHS range        [6e+00, 1e+09]
Presolve removed 5059 rows and 17915 columns
Presolve time: 0.11s
Presolved: 20236 rows, 47047 columns, 150140 nonzeros
Ordering time: 2.34s

Barrier statistics:
 Dense cols : 2
 Free vars  : 2664
 AA' NZ     : 2.079e+05
 Factor NZ  : 1.458e+06 (roughly 40 MBytes of memory)
 Factor Ops : 2.008e+08 (less than 1 second per iteration)
 Threads    : 24

                  Objective                Residual
Iter       Primal          Dual         Primal    Dual     Compl     Time
   0  -1.12023817e+16  6.76841315e+13  3.76e+07 6.44e+07  2.67e+13     4s
   1  -3.43987081e+15  3.44513766e+15  8.16e+06 7.76e+07  5.97e+12     4s
   2  -1.66419514e+15  4.55673473e+15  3.10e+06 3.28e+07  2.46e+12     5s
   3  -5.86675266e+14  4.89176180e+15  9.39e+05 1.02e+07  8.09e+11     6s
   4  -2.79950307e+14  4.22051318e+15  2.86e+05 5.33e+06  3.31e+11     7s
   5  -1.75948292e+14  2.79075077e+15  1.05e+05 1.79e+06  1.29e+11     8s
   6  -1.16042310e+14  1.20998544e+15  3.07e+04 4.16e+05  3.81e+10     8s
   7  -4.44474573e+13  3.78596413e+14  2.15e+03 1.01e+05  8.97e+09     9s
   8  -7.77968817e+12  6.60502608e+13  5.76e+01 1.49e+04  1.44e+09    10s
   9  -4.20163907e+12  2.24100449e+13  2.63e+01 4.30e+03  4.96e+08    10s
  10  -1.50126966e+12  8.18176837e+12  8.60e+00 1.21e+03  1.73e+08    11s
  11  -1.48799509e+12  7.36097255e+12  8.53e+00 1.08e+03  1.58e+08    12s
  12  -4.74700936e+11  2.09647882e+12  1.88e+00 2.79e+02  4.43e+07    13s
  13  -2.60723200e+11  8.17428006e+11  1.03e+00 9.40e+01  1.83e+07    13s
  14  -4.39563510e+10  2.75438677e+11  2.41e-01 2.26e+01  5.36e+06    14s
  15   2.02215010e+10  1.56105393e+11  8.77e-02 9.37e+00  2.27e+06    15s
  16   4.29084446e+10  1.22691643e+11  4.29e-02 5.73e+00  1.33e+06    15s
  17   4.95624482e+10  1.02402370e+11  3.02e-02 3.65e+00  8.83e+05    16s
  18   5.43306163e+10  9.05912634e+10  2.08e-02 2.46e+00  6.05e+05    17s
  19   5.63860277e+10  8.44193202e+10  1.66e-02 1.86e+00  4.68e+05    17s
  20   5.75769894e+10  8.16817558e+10  1.43e-02 1.58e+00  4.02e+05    18s
  21   6.02249868e+10  7.56425830e+10  9.16e-03 9.80e-01  2.57e+05    19s
  22   6.15805943e+10  7.26253517e+10  6.50e-03 6.92e-01  1.84e+05    19s
  23   6.24602613e+10  7.02876913e+10  4.81e-03 5.36e-01  1.31e+05    20s
  24   6.32082974e+10  6.87430073e+10  3.48e-03 7.92e-01  9.25e+04    21s
  25   6.38681485e+10  6.79974763e+10  2.23e-03 6.43e-01  6.91e+04    22s
  26   6.40905892e+10  6.72771193e+10  1.85e-03 4.93e-01  5.33e+04    22s
  27   6.45214766e+10  6.66314972e+10  1.09e-03 4.81e-01  3.54e+04    23s
  28   6.45882849e+10  6.61992738e+10  9.71e-04 4.84e-01  2.70e+04    24s
  29   6.47808848e+10  6.60789818e+10  6.45e-04 5.42e-01  2.19e+04    25s
  30   6.49217076e+10  6.58447364e+10  3.99e-04 6.11e-01  1.56e+04    25s
  31   6.49958572e+10  6.56254942e+10  2.76e-04 6.07e-01  1.07e+04    26s
  32   6.50393199e+10  6.54272592e+10  2.03e-04 4.17e-01  6.66e+03    27s
  33   6.50881784e+10  6.53575742e+10  1.27e-04 3.61e-01  4.67e+03    28s
  34   6.50992952e+10  6.53154976e+10  1.11e-04 3.89e-01  3.77e+03    29s
  35   6.51082111e+10  6.52948367e+10  9.80e-05 3.93e-01  3.29e+03    31s
  36   6.51310498e+10  6.52593201e+10  6.27e-05 4.20e-01  2.32e+03    33s
  37   6.51445206e+10  6.52257964e+10  4.30e-05 4.21e-01  1.53e+03    35s
  38   6.51531399e+10  6.52033992e+10  3.06e-05 4.21e-01  1.02e+03    38s
  39   6.51567258e+10  6.51948628e+10  2.52e-05 4.13e-01  8.04e+02    42s
  40   6.51642478e+10  6.51824800e+10  1.49e-05 4.06e-01  4.68e+02    45s
  41   6.51670499e+10  6.51785422e+10  1.24e-05 3.43e-01  3.34e+02    48s
  42   6.51692745e+10  6.51773096e+10  9.05e-06 3.37e-01  2.77e+02    51s
  43   6.51696331e+10  6.51760279e+10  7.92e-06 3.27e-01  2.40e+02    53s
  44   6.51703941e+10  6.51745604e+10  1.71e-05 3.25e-01  1.95e+02    55s
  45   6.51727806e+10  6.51733406e+10  1.67e-05 3.23e-01  1.33e+02    57s
  46   6.51736957e+10  6.51723051e+10  1.77e-04 3.19e-01  1.00e+02    59s
  47   6.51742511e+10  6.51717700e+10  1.34e-04 3.17e-01  8.23e+01    61s
  48   6.51744812e+10  6.51714500e+10  1.12e-04 3.17e-01  7.26e+01    63s
  49   6.51749529e+10  6.51708278e+10  9.09e-05 3.17e-01  5.29e+01    65s
  50   6.51751628e+10  6.51699689e+10  1.15e-04 3.16e-01  3.31e+01    66s
  51   6.51752856e+10  6.51692727e+10  5.14e-05 3.16e-01  1.78e+01    67s
  52   6.51756713e+10  6.51688129e+10  3.38e-04 3.16e-01  4.56e+00    68s
  53   6.51758087e+10  6.51686534e+10  6.15e-04 3.14e-01  2.41e+00    68s
  54   6.51764128e+10  6.51685560e+10  1.26e-03 3.12e-01  1.14e+00    69s
  55   6.51763943e+10  6.51685597e+10  1.30e-03 3.12e-01  1.14e+00    71s
  56   6.51763943e+10  6.51685597e+10  1.30e-03 3.12e-01  1.14e+00    72s
  57   6.51763943e+10  6.51685597e+10  1.30e-03 3.12e-01  1.14e+00    73s
  58   6.51763943e+10  6.51685597e+10  1.30e-03 3.12e-01  1.14e+00    74s
  59   6.51763943e+10  6.51685597e+10  1.30e-03 3.12e-01  1.14e+00    75s
  60   6.51763943e+10  6.51685597e+10  1.30e-03 3.12e-01  1.14e+00    76s
  61   6.51763943e+10  6.51685597e+10  1.30e-03 3.12e-01  1.14e+00    77s
  62   6.51763943e+10  6.51685597e+10  1.30e-03 3.12e-01  1.14e+00    78s
  63   6.51763943e+10  6.51685597e+10  1.30e-03 3.12e-01  1.14e+00    79s
  64   6.51763943e+10  6.51685597e+10  1.30e-03 3.12e-01  1.14e+00    80s

Barrier performed 64 iterations in 80.39 seconds
Sub-optimal termination - objective 6.51752856e+10


User-callback calls 4159, time in user-callback 0.04 sec
